180 300 65 60 92 68 67 51 60 84 89 58 85 76 84 85 60 92 69 72 68 65 97 59 70 75 73 88 94 88 58 75 56 73 85 98 91 77 99 76 60 61 84 69 88 92 78 98 57 71 69 100 61 90 84 81 64 56 93 83 94 50 82 100 98 91 71 63 67 95 89 51 55 97 96 93 89 73 65 70 69 58 70 80 99 53 85 87 59 78 94 52 52 75 76 75 66 97 88 57 91 76 84 71 72 79 88 85 76 52 55 95 86 75 74 58 52 84 95 61 61 89 63 88 88 89 62 78 59 100 60 75 75 94 96 72 72 83 56 98 60 86 67 96 85 65 78 87 99 72 72 59 85 59 98 73 72 84 75 82 84 85 56 83 78 76 54 74 83 86 72 93 96 63 62 81 78 90 92 77 87 89 